p cnf 611 2073
c p weight -243 1 0
c p weight 243 -1 0
c p weight 247 6.12323399573676603586882014729198302312846062338790031898128063403419218957424163818359375E-17 0
c p weight -247 1 0
c p weight 248 1 0
c p weight -248 1 0
c p weight -245 1 0
c p weight 245 -1 0
c p weight -249 1 0
c p weight 249 -1 0
c p weight -251 1 0
c p weight 251 -1 0
c p weight -254 1 0
c p weight 254 -1 0
c p weight -257 1 0
c p weight 257 -1 0
c p weight -260 1 0
c p weight 260 -1 0
c p weight -263 1 0
c p weight 263 -1 0
c p weight -266 1 0
c p weight 266 -1 0
c p weight -269 1 0
c p weight 269 -1 0
c p weight -272 1 0
c p weight 272 -1 0
c p weight -275 1 0
c p weight 275 -1 0
c p weight -278 1 0
c p weight 278 -1 0
c p weight -281 1 0
c p weight 281 -1 0
c p weight -284 1 0
c p weight 284 -1 0
c p weight -287 1 0
c p weight 287 -1 0
c p weight -290 1 0
c p weight 290 -1 0
c p weight -293 1 0
c p weight 293 -1 0
c p weight -296 1 0
c p weight 296 -1 0
c p weight -299 1 0
c p weight 299 -1 0
c p weight -302 1 0
c p weight 302 -1 0
c p weight -305 1 0
c p weight 305 -1 0
c p weight -308 1 0
c p weight 308 -1 0
c p weight -311 1 0
c p weight 311 -1 0
c p weight -314 1 0
c p weight 314 -1 0
c p weight -317 1 0
c p weight 317 -1 0
c p weight -320 1 0
c p weight 320 -1 0
c p weight -323 1 0
c p weight 323 -1 0
c p weight -326 1 0
c p weight 326 -1 0
c p weight -329 1 0
c p weight 329 -1 0
c p weight -332 1 0
c p weight 332 -1 0
c p weight -335 1 0
c p weight 335 -1 0
c p weight -338 1 0
c p weight 338 -1 0
c p weight -341 1 0
c p weight 341 -1 0
c p weight -344 1 0
c p weight 344 -1 0
c p weight -347 1 0
c p weight 347 -1 0
c p weight -350 1 0
c p weight 350 -1 0
c p weight -353 1 0
c p weight 353 -1 0
c p weight -356 1 0
c p weight 356 -1 0
c p weight -359 1 0
c p weight 359 -1 0
c p weight -362 1 0
c p weight 362 -1 0
c p weight -365 1 0
c p weight 365 -1 0
c p weight -368 1 0
c p weight 368 -1 0
c p weight -371 1 0
c p weight 371 -1 0
c p weight -374 1 0
c p weight 374 -1 0
c p weight -377 1 0
c p weight 377 -1 0
c p weight -380 1 0
c p weight 380 -1 0
c p weight -383 1 0
c p weight 383 -1 0
c p weight -386 1 0
c p weight 386 -1 0
c p weight -389 1 0
c p weight 389 -1 0
c p weight -392 1 0
c p weight 392 -1 0
c p weight -395 1 0
c p weight 395 -1 0
c p weight -398 1 0
c p weight 398 -1 0
c p weight -401 1 0
c p weight 401 -1 0
c p weight -404 1 0
c p weight 404 -1 0
c p weight -407 1 0
c p weight 407 -1 0
c p weight -410 1 0
c p weight 410 -1 0
c p weight -413 1 0
c p weight 413 -1 0
c p weight -416 1 0
c p weight 416 -1 0
c p weight -419 1 0
c p weight 419 -1 0
c p weight -422 1 0
c p weight 422 -1 0
c p weight -425 1 0
c p weight 425 -1 0
c p weight -428 1 0
c p weight 428 -1 0
c p weight -431 1 0
c p weight 431 -1 0
c p weight -434 1 0
c p weight 434 -1 0
c p weight -437 1 0
c p weight 437 -1 0
c p weight -440 1 0
c p weight 440 -1 0
c p weight -443 1 0
c p weight 443 -1 0
c p weight -446 1 0
c p weight 446 -1 0
c p weight -449 1 0
c p weight 449 -1 0
c p weight -452 1 0
c p weight 452 -1 0
c p weight -455 1 0
c p weight 455 -1 0
c p weight -458 1 0
c p weight 458 -1 0
c p weight -461 1 0
c p weight 461 -1 0
c p weight -464 1 0
c p weight 464 -1 0
c p weight -467 1 0
c p weight 467 -1 0
c p weight -470 1 0
c p weight 470 -1 0
c p weight -473 1 0
c p weight 473 -1 0
c p weight -476 1 0
c p weight 476 -1 0
c p weight -479 1 0
c p weight 479 -1 0
c p weight -482 1 0
c p weight 482 -1 0
c p weight -485 1 0
c p weight 485 -1 0
c p weight -488 1 0
c p weight 488 -1 0
c p weight -491 1 0
c p weight 491 -1 0
c p weight -494 1 0
c p weight 494 -1 0
c p weight -497 1 0
c p weight 497 -1 0
c p weight -500 1 0
c p weight 500 -1 0
c p weight -503 1 0
c p weight 503 -1 0
c p weight -506 1 0
c p weight 506 -1 0
c p weight -509 1 0
c p weight 509 -1 0
c p weight -512 1 0
c p weight 512 -1 0
c p weight -515 1 0
c p weight 515 -1 0
c p weight -518 1 0
c p weight 518 -1 0
c p weight -521 1 0
c p weight 521 -1 0
c p weight -524 1 0
c p weight 524 -1 0
c p weight -527 1 0
c p weight 527 -1 0
c p weight -530 1 0
c p weight 530 -1 0
c p weight -533 1 0
c p weight 533 -1 0
c p weight -536 1 0
c p weight 536 -1 0
c p weight -539 1 0
c p weight 539 -1 0
c p weight -542 1 0
c p weight 542 -1 0
c p weight -545 1 0
c p weight 545 -1 0
c p weight -548 1 0
c p weight 548 -1 0
c p weight -551 1 0
c p weight 551 -1 0
c p weight -554 1 0
c p weight 554 -1 0
c p weight -557 1 0
c p weight 557 -1 0
c p weight -560 1 0
c p weight 560 -1 0
c p weight -563 1 0
c p weight 563 -1 0
c p weight -566 1 0
c p weight 566 -1 0
c p weight -569 1 0
c p weight 569 -1 0
c p weight -572 1 0
c p weight 572 -1 0
c p weight -575 1 0
c p weight 575 -1 0
c p weight -578 1 0
c p weight 578 -1 0
c p weight -581 1 0
c p weight 581 -1 0
c p weight -584 1 0
c p weight 584 -1 0
c p weight -587 1 0
c p weight 587 -1 0
c p weight -590 1 0
c p weight 590 -1 0
c p weight -593 1 0
c p weight 593 -1 0
c p weight -596 1 0
c p weight 596 -1 0
c p weight -599 1 0
c p weight 599 -1 0
c p weight -602 1 0
c p weight 602 -1 0
c p weight -605 1 0
c p weight 605 -1 0
c p weight -608 1 0
c p weight 608 -1 0
c p weight 611 0.5 0
c p weight -611 1 0
611 0
-241 0
-239 0
-237 0
-235 0
-233 0
-231 0
-229 0
-227 0
-225 0
-223 0
-221 0
-219 0
-217 0
-215 0
-213 0
-211 0
-209 0
-207 0
-205 0
-203 0
-201 0
-199 0
-197 0
-195 0
-193 0
-191 0
-189 0
-187 0
-185 0
-183 0
-181 0
-179 0
-177 0
-175 0
-173 0
-171 0
-169 0
-167 0
-165 0
-163 0
-161 0
-159 0
-157 0
-155 0
-153 0
-151 0
-149 0
-147 0
-145 0
-143 0
-141 0
-139 0
-137 0
-135 0
-133 0
-131 0
-129 0
-127 0
-125 0
-123 0
-121 0
-119 0
-117 0
-115 0
-113 0
-111 0
-109 0
-107 0
-105 0
-103 0
-101 0
-99 0
-97 0
-95 0
-93 0
-91 0
-89 0
-87 0
-85 0
-83 0
-81 0
-79 0
-77 0
-75 0
-73 0
-71 0
-69 0
-67 0
-65 0
-63 0
-61 0
-59 0
-57 0
-55 0
-53 0
-51 0
-49 0
-47 0
-45 0
-43 0
-41 0
-39 0
-37 0
-35 0
-33 0
-31 0
-29 0
-27 0
-25 0
-23 0
-21 0
-19 0
-17 0
-15 0
-13 0
-11 0
-9 0
-7 0
-5 0
-3 0
-1 0
-243 241 0
-243 242 0
243 -241 -242 0
244 241 -242 0
244 -241 242 0
-244 241 242 0
-244 -241 -242 0
-245 246 0
-245 244 0
-245 -241 0
245 -246 241 -244 0
246 -241 244 0
-246 241 244 0
-247 244 0
246 -247 -241 0
-246 -247 241 0
246 247 241 -244 0
-246 247 -241 -244 0
-248 244 0
246 -248 241 0
-246 -248 -241 0
246 248 -241 -244 0
-246 248 241 -244 0
-249 246 0
-249 244 0
249 -246 -244 0
250 246 -244 0
250 -246 244 0
-250 246 244 0
-250 -246 -244 0
-251 246 0
-251 240 0
-251 239 -250 0
-251 -239 250 0
251 -246 239 250 -240 0
251 -246 -239 -250 -240 0
253 246 -239 0
253 -246 239 0
-253 246 239 0
-253 -246 -239 0
252 250 -240 0
252 -250 240 0
-252 250 240 0
-252 -250 -240 0
-254 253 0
-254 238 0
-254 237 -240 0
-254 -237 240 0
254 -253 237 240 -238 0
254 -253 -237 -240 -238 0
256 253 -237 0
256 -253 237 0
-256 253 237 0
-256 -253 -237 0
255 240 -238 0
255 -240 238 0
-255 240 238 0
-255 -240 -238 0
-257 256 0
-257 236 0
-257 235 -238 0
-257 -235 238 0
257 -256 235 238 -236 0
257 -256 -235 -238 -236 0
259 256 -235 0
259 -256 235 0
-259 256 235 0
-259 -256 -235 0
258 238 -236 0
258 -238 236 0
-258 238 236 0
-258 -238 -236 0
-260 259 0
-260 234 0
-260 233 -236 0
-260 -233 236 0
260 -259 233 236 -234 0
260 -259 -233 -236 -234 0
262 259 -233 0
262 -259 233 0
-262 259 233 0
-262 -259 -233 0
261 236 -234 0
261 -236 234 0
-261 236 234 0
-261 -236 -234 0
-263 262 0
-263 232 0
-263 231 -234 0
-263 -231 234 0
263 -262 231 234 -232 0
263 -262 -231 -234 -232 0
265 262 -231 0
265 -262 231 0
-265 262 231 0
-265 -262 -231 0
264 234 -232 0
264 -234 232 0
-264 234 232 0
-264 -234 -232 0
-266 265 0
-266 230 0
-266 229 -232 0
-266 -229 232 0
266 -265 229 232 -230 0
266 -265 -229 -232 -230 0
268 265 -229 0
268 -265 229 0
-268 265 229 0
-268 -265 -229 0
267 232 -230 0
267 -232 230 0
-267 232 230 0
-267 -232 -230 0
-269 268 0
-269 228 0
-269 227 -230 0
-269 -227 230 0
269 -268 227 230 -228 0
269 -268 -227 -230 -228 0
271 268 -227 0
271 -268 227 0
-271 268 227 0
-271 -268 -227 0
270 230 -228 0
270 -230 228 0
-270 230 228 0
-270 -230 -228 0
-272 271 0
-272 226 0
-272 225 -228 0
-272 -225 228 0
272 -271 225 228 -226 0
272 -271 -225 -228 -226 0
274 271 -225 0
274 -271 225 0
-274 271 225 0
-274 -271 -225 0
273 228 -226 0
273 -228 226 0
-273 228 226 0
-273 -228 -226 0
-275 274 0
-275 224 0
-275 223 -226 0
-275 -223 226 0
275 -274 223 226 -224 0
275 -274 -223 -226 -224 0
277 274 -223 0
277 -274 223 0
-277 274 223 0
-277 -274 -223 0
276 226 -224 0
276 -226 224 0
-276 226 224 0
-276 -226 -224 0
-278 277 0
-278 222 0
-278 221 -224 0
-278 -221 224 0
278 -277 221 224 -222 0
278 -277 -221 -224 -222 0
280 277 -221 0
280 -277 221 0
-280 277 221 0
-280 -277 -221 0
279 224 -222 0
279 -224 222 0
-279 224 222 0
-279 -224 -222 0
-281 280 0
-281 220 0
-281 219 -222 0
-281 -219 222 0
281 -280 219 222 -220 0
281 -280 -219 -222 -220 0
283 280 -219 0
283 -280 219 0
-283 280 219 0
-283 -280 -219 0
282 222 -220 0
282 -222 220 0
-282 222 220 0
-282 -222 -220 0
-284 283 0
-284 218 0
-284 217 -220 0
-284 -217 220 0
284 -283 217 220 -218 0
284 -283 -217 -220 -218 0
286 283 -217 0
286 -283 217 0
-286 283 217 0
-286 -283 -217 0
285 220 -218 0
285 -220 218 0
-285 220 218 0
-285 -220 -218 0
-287 286 0
-287 216 0
-287 215 -218 0
-287 -215 218 0
287 -286 215 218 -216 0
287 -286 -215 -218 -216 0
289 286 -215 0
289 -286 215 0
-289 286 215 0
-289 -286 -215 0
288 218 -216 0
288 -218 216 0
-288 218 216 0
-288 -218 -216 0
-290 289 0
-290 214 0
-290 213 -216 0
-290 -213 216 0
290 -289 213 216 -214 0
290 -289 -213 -216 -214 0
292 289 -213 0
292 -289 213 0
-292 289 213 0
-292 -289 -213 0
291 216 -214 0
291 -216 214 0
-291 216 214 0
-291 -216 -214 0
-293 292 0
-293 212 0
-293 211 -214 0
-293 -211 214 0
293 -292 211 214 -212 0
293 -292 -211 -214 -212 0
295 292 -211 0
295 -292 211 0
-295 292 211 0
-295 -292 -211 0
294 214 -212 0
294 -214 212 0
-294 214 212 0
-294 -214 -212 0
-296 295 0
-296 210 0
-296 209 -212 0
-296 -209 212 0
296 -295 209 212 -210 0
296 -295 -209 -212 -210 0
298 295 -209 0
298 -295 209 0
-298 295 209 0
-298 -295 -209 0
297 212 -210 0
297 -212 210 0
-297 212 210 0
-297 -212 -210 0
-299 298 0
-299 208 0
-299 207 -210 0
-299 -207 210 0
299 -298 207 210 -208 0
299 -298 -207 -210 -208 0
301 298 -207 0
301 -298 207 0
-301 298 207 0
-301 -298 -207 0
300 210 -208 0
300 -210 208 0
-300 210 208 0
-300 -210 -208 0
-302 301 0
-302 206 0
-302 205 -208 0
-302 -205 208 0
302 -301 205 208 -206 0
302 -301 -205 -208 -206 0
304 301 -205 0
304 -301 205 0
-304 301 205 0
-304 -301 -205 0
303 208 -206 0
303 -208 206 0
-303 208 206 0
-303 -208 -206 0
-305 304 0
-305 204 0
-305 203 -206 0
-305 -203 206 0
305 -304 203 206 -204 0
305 -304 -203 -206 -204 0
307 304 -203 0
307 -304 203 0
-307 304 203 0
-307 -304 -203 0
306 206 -204 0
306 -206 204 0
-306 206 204 0
-306 -206 -204 0
-308 307 0
-308 202 0
-308 201 -204 0
-308 -201 204 0
308 -307 201 204 -202 0
308 -307 -201 -204 -202 0
310 307 -201 0
310 -307 201 0
-310 307 201 0
-310 -307 -201 0
309 204 -202 0
309 -204 202 0
-309 204 202 0
-309 -204 -202 0
-311 310 0
-311 200 0
-311 199 -202 0
-311 -199 202 0
311 -310 199 202 -200 0
311 -310 -199 -202 -200 0
313 310 -199 0
313 -310 199 0
-313 310 199 0
-313 -310 -199 0
312 202 -200 0
312 -202 200 0
-312 202 200 0
-312 -202 -200 0
-314 313 0
-314 198 0
-314 197 -200 0
-314 -197 200 0
314 -313 197 200 -198 0
314 -313 -197 -200 -198 0
316 313 -197 0
316 -313 197 0
-316 313 197 0
-316 -313 -197 0
315 200 -198 0
315 -200 198 0
-315 200 198 0
-315 -200 -198 0
-317 316 0
-317 196 0
-317 195 -198 0
-317 -195 198 0
317 -316 195 198 -196 0
317 -316 -195 -198 -196 0
319 316 -195 0
319 -316 195 0
-319 316 195 0
-319 -316 -195 0
318 198 -196 0
318 -198 196 0
-318 198 196 0
-318 -198 -196 0
-320 319 0
-320 194 0
-320 193 -196 0
-320 -193 196 0
320 -319 193 196 -194 0
320 -319 -193 -196 -194 0
322 319 -193 0
322 -319 193 0
-322 319 193 0
-322 -319 -193 0
321 196 -194 0
321 -196 194 0
-321 196 194 0
-321 -196 -194 0
-323 322 0
-323 192 0
-323 191 -194 0
-323 -191 194 0
323 -322 191 194 -192 0
323 -322 -191 -194 -192 0
325 322 -191 0
325 -322 191 0
-325 322 191 0
-325 -322 -191 0
324 194 -192 0
324 -194 192 0
-324 194 192 0
-324 -194 -192 0
-326 325 0
-326 190 0
-326 189 -192 0
-326 -189 192 0
326 -325 189 192 -190 0
326 -325 -189 -192 -190 0
328 325 -189 0
328 -325 189 0
-328 325 189 0
-328 -325 -189 0
327 192 -190 0
327 -192 190 0
-327 192 190 0
-327 -192 -190 0
-329 328 0
-329 188 0
-329 187 -190 0
-329 -187 190 0
329 -328 187 190 -188 0
329 -328 -187 -190 -188 0
331 328 -187 0
331 -328 187 0
-331 328 187 0
-331 -328 -187 0
330 190 -188 0
330 -190 188 0
-330 190 188 0
-330 -190 -188 0
-332 331 0
-332 186 0
-332 185 -188 0
-332 -185 188 0
332 -331 185 188 -186 0
332 -331 -185 -188 -186 0
334 331 -185 0
334 -331 185 0
-334 331 185 0
-334 -331 -185 0
333 188 -186 0
333 -188 186 0
-333 188 186 0
-333 -188 -186 0
-335 334 0
-335 184 0
-335 183 -186 0
-335 -183 186 0
335 -334 183 186 -184 0
335 -334 -183 -186 -184 0
337 334 -183 0
337 -334 183 0
-337 334 183 0
-337 -334 -183 0
336 186 -184 0
336 -186 184 0
-336 186 184 0
-336 -186 -184 0
-338 337 0
-338 182 0
-338 181 -184 0
-338 -181 184 0
338 -337 181 184 -182 0
338 -337 -181 -184 -182 0
340 337 -181 0
340 -337 181 0
-340 337 181 0
-340 -337 -181 0
339 184 -182 0
339 -184 182 0
-339 184 182 0
-339 -184 -182 0
-341 340 0
-341 180 0
-341 179 -182 0
-341 -179 182 0
341 -340 179 182 -180 0
341 -340 -179 -182 -180 0
343 340 -179 0
343 -340 179 0
-343 340 179 0
-343 -340 -179 0
342 182 -180 0
342 -182 180 0
-342 182 180 0
-342 -182 -180 0
-344 343 0
-344 178 0
-344 177 -180 0
-344 -177 180 0
344 -343 177 180 -178 0
344 -343 -177 -180 -178 0
346 343 -177 0
346 -343 177 0
-346 343 177 0
-346 -343 -177 0
345 180 -178 0
345 -180 178 0
-345 180 178 0
-345 -180 -178 0
-347 346 0
-347 176 0
-347 175 -178 0
-347 -175 178 0
347 -346 175 178 -176 0
347 -346 -175 -178 -176 0
349 346 -175 0
349 -346 175 0
-349 346 175 0
-349 -346 -175 0
348 178 -176 0
348 -178 176 0
-348 178 176 0
-348 -178 -176 0
-350 349 0
-350 174 0
-350 173 -176 0
-350 -173 176 0
350 -349 173 176 -174 0
350 -349 -173 -176 -174 0
352 349 -173 0
352 -349 173 0
-352 349 173 0
-352 -349 -173 0
351 176 -174 0
351 -176 174 0
-351 176 174 0
-351 -176 -174 0
-353 352 0
-353 172 0
-353 171 -174 0
-353 -171 174 0
353 -352 171 174 -172 0
353 -352 -171 -174 -172 0
355 352 -171 0
355 -352 171 0
-355 352 171 0
-355 -352 -171 0
354 174 -172 0
354 -174 172 0
-354 174 172 0
-354 -174 -172 0
-356 355 0
-356 170 0
-356 169 -172 0
-356 -169 172 0
356 -355 169 172 -170 0
356 -355 -169 -172 -170 0
358 355 -169 0
358 -355 169 0
-358 355 169 0
-358 -355 -169 0
357 172 -170 0
357 -172 170 0
-357 172 170 0
-357 -172 -170 0
-359 358 0
-359 168 0
-359 167 -170 0
-359 -167 170 0
359 -358 167 170 -168 0
359 -358 -167 -170 -168 0
361 358 -167 0
361 -358 167 0
-361 358 167 0
-361 -358 -167 0
360 170 -168 0
360 -170 168 0
-360 170 168 0
-360 -170 -168 0
-362 361 0
-362 166 0
-362 165 -168 0
-362 -165 168 0
362 -361 165 168 -166 0
362 -361 -165 -168 -166 0
364 361 -165 0
364 -361 165 0
-364 361 165 0
-364 -361 -165 0
363 168 -166 0
363 -168 166 0
-363 168 166 0
-363 -168 -166 0
-365 364 0
-365 164 0
-365 163 -166 0
-365 -163 166 0
365 -364 163 166 -164 0
365 -364 -163 -166 -164 0
367 364 -163 0
367 -364 163 0
-367 364 163 0
-367 -364 -163 0
366 166 -164 0
366 -166 164 0
-366 166 164 0
-366 -166 -164 0
-368 367 0
-368 162 0
-368 161 -164 0
-368 -161 164 0
368 -367 161 164 -162 0
368 -367 -161 -164 -162 0
370 367 -161 0
370 -367 161 0
-370 367 161 0
-370 -367 -161 0
369 164 -162 0
369 -164 162 0
-369 164 162 0
-369 -164 -162 0
-371 370 0
-371 160 0
-371 159 -162 0
-371 -159 162 0
371 -370 159 162 -160 0
371 -370 -159 -162 -160 0
373 370 -159 0
373 -370 159 0
-373 370 159 0
-373 -370 -159 0
372 162 -160 0
372 -162 160 0
-372 162 160 0
-372 -162 -160 0
-374 373 0
-374 158 0
-374 157 -160 0
-374 -157 160 0
374 -373 157 160 -158 0
374 -373 -157 -160 -158 0
376 373 -157 0
376 -373 157 0
-376 373 157 0
-376 -373 -157 0
375 160 -158 0
375 -160 158 0
-375 160 158 0
-375 -160 -158 0
-377 376 0
-377 156 0
-377 155 -158 0
-377 -155 158 0
377 -376 155 158 -156 0
377 -376 -155 -158 -156 0
379 376 -155 0
379 -376 155 0
-379 376 155 0
-379 -376 -155 0
378 158 -156 0
378 -158 156 0
-378 158 156 0
-378 -158 -156 0
-380 379 0
-380 154 0
-380 153 -156 0
-380 -153 156 0
380 -379 153 156 -154 0
380 -379 -153 -156 -154 0
382 379 -153 0
382 -379 153 0
-382 379 153 0
-382 -379 -153 0
381 156 -154 0
381 -156 154 0
-381 156 154 0
-381 -156 -154 0
-383 382 0
-383 152 0
-383 151 -154 0
-383 -151 154 0
383 -382 151 154 -152 0
383 -382 -151 -154 -152 0
385 382 -151 0
385 -382 151 0
-385 382 151 0
-385 -382 -151 0
384 154 -152 0
384 -154 152 0
-384 154 152 0
-384 -154 -152 0
-386 385 0
-386 150 0
-386 149 -152 0
-386 -149 152 0
386 -385 149 152 -150 0
386 -385 -149 -152 -150 0
388 385 -149 0
388 -385 149 0
-388 385 149 0
-388 -385 -149 0
387 152 -150 0
387 -152 150 0
-387 152 150 0
-387 -152 -150 0
-389 388 0
-389 148 0
-389 147 -150 0
-389 -147 150 0
389 -388 147 150 -148 0
389 -388 -147 -150 -148 0
391 388 -147 0
391 -388 147 0
-391 388 147 0
-391 -388 -147 0
390 150 -148 0
390 -150 148 0
-390 150 148 0
-390 -150 -148 0
-392 391 0
-392 146 0
-392 145 -148 0
-392 -145 148 0
392 -391 145 148 -146 0
392 -391 -145 -148 -146 0
394 391 -145 0
394 -391 145 0
-394 391 145 0
-394 -391 -145 0
393 148 -146 0
393 -148 146 0
-393 148 146 0
-393 -148 -146 0
-395 394 0
-395 144 0
-395 143 -146 0
-395 -143 146 0
395 -394 143 146 -144 0
395 -394 -143 -146 -144 0
397 394 -143 0
397 -394 143 0
-397 394 143 0
-397 -394 -143 0
396 146 -144 0
396 -146 144 0
-396 146 144 0
-396 -146 -144 0
-398 397 0
-398 142 0
-398 141 -144 0
-398 -141 144 0
398 -397 141 144 -142 0
398 -397 -141 -144 -142 0
400 397 -141 0
400 -397 141 0
-400 397 141 0
-400 -397 -141 0
399 144 -142 0
399 -144 142 0
-399 144 142 0
-399 -144 -142 0
-401 400 0
-401 140 0
-401 139 -142 0
-401 -139 142 0
401 -400 139 142 -140 0
401 -400 -139 -142 -140 0
403 400 -139 0
403 -400 139 0
-403 400 139 0
-403 -400 -139 0
402 142 -140 0
402 -142 140 0
-402 142 140 0
-402 -142 -140 0
-404 403 0
-404 138 0
-404 137 -140 0
-404 -137 140 0
404 -403 137 140 -138 0
404 -403 -137 -140 -138 0
406 403 -137 0
406 -403 137 0
-406 403 137 0
-406 -403 -137 0
405 140 -138 0
405 -140 138 0
-405 140 138 0
-405 -140 -138 0
-407 406 0
-407 136 0
-407 135 -138 0
-407 -135 138 0
407 -406 135 138 -136 0
407 -406 -135 -138 -136 0
409 406 -135 0
409 -406 135 0
-409 406 135 0
-409 -406 -135 0
408 138 -136 0
408 -138 136 0
-408 138 136 0
-408 -138 -136 0
-410 409 0
-410 134 0
-410 133 -136 0
-410 -133 136 0
410 -409 133 136 -134 0
410 -409 -133 -136 -134 0
412 409 -133 0
412 -409 133 0
-412 409 133 0
-412 -409 -133 0
411 136 -134 0
411 -136 134 0
-411 136 134 0
-411 -136 -134 0
-413 412 0
-413 132 0
-413 131 -134 0
-413 -131 134 0
413 -412 131 134 -132 0
413 -412 -131 -134 -132 0
415 412 -131 0
415 -412 131 0
-415 412 131 0
-415 -412 -131 0
414 134 -132 0
414 -134 132 0
-414 134 132 0
-414 -134 -132 0
-416 415 0
-416 130 0
-416 129 -132 0
-416 -129 132 0
416 -415 129 132 -130 0
416 -415 -129 -132 -130 0
418 415 -129 0
418 -415 129 0
-418 415 129 0
-418 -415 -129 0
417 132 -130 0
417 -132 130 0
-417 132 130 0
-417 -132 -130 0
-419 418 0
-419 128 0
-419 127 -130 0
-419 -127 130 0
419 -418 127 130 -128 0
419 -418 -127 -130 -128 0
421 418 -127 0
421 -418 127 0
-421 418 127 0
-421 -418 -127 0
420 130 -128 0
420 -130 128 0
-420 130 128 0
-420 -130 -128 0
-422 421 0
-422 126 0
-422 125 -128 0
-422 -125 128 0
422 -421 125 128 -126 0
422 -421 -125 -128 -126 0
424 421 -125 0
424 -421 125 0
-424 421 125 0
-424 -421 -125 0
423 128 -126 0
423 -128 126 0
-423 128 126 0
-423 -128 -126 0
-425 424 0
-425 124 0
-425 123 -126 0
-425 -123 126 0
425 -424 123 126 -124 0
425 -424 -123 -126 -124 0
427 424 -123 0
427 -424 123 0
-427 424 123 0
-427 -424 -123 0
426 126 -124 0
426 -126 124 0
-426 126 124 0
-426 -126 -124 0
-428 427 0
-428 122 0
-428 121 -124 0
-428 -121 124 0
428 -427 121 124 -122 0
428 -427 -121 -124 -122 0
430 427 -121 0
430 -427 121 0
-430 427 121 0
-430 -427 -121 0
429 124 -122 0
429 -124 122 0
-429 124 122 0
-429 -124 -122 0
-431 430 0
-431 120 0
-431 119 -122 0
-431 -119 122 0
431 -430 119 122 -120 0
431 -430 -119 -122 -120 0
433 430 -119 0
433 -430 119 0
-433 430 119 0
-433 -430 -119 0
432 122 -120 0
432 -122 120 0
-432 122 120 0
-432 -122 -120 0
-434 433 0
-434 118 0
-434 117 -120 0
-434 -117 120 0
434 -433 117 120 -118 0
434 -433 -117 -120 -118 0
436 433 -117 0
436 -433 117 0
-436 433 117 0
-436 -433 -117 0
435 120 -118 0
435 -120 118 0
-435 120 118 0
-435 -120 -118 0
-437 436 0
-437 116 0
-437 115 -118 0
-437 -115 118 0
437 -436 115 118 -116 0
437 -436 -115 -118 -116 0
439 436 -115 0
439 -436 115 0
-439 436 115 0
-439 -436 -115 0
438 118 -116 0
438 -118 116 0
-438 118 116 0
-438 -118 -116 0
-440 439 0
-440 114 0
-440 113 -116 0
-440 -113 116 0
440 -439 113 116 -114 0
440 -439 -113 -116 -114 0
442 439 -113 0
442 -439 113 0
-442 439 113 0
-442 -439 -113 0
441 116 -114 0
441 -116 114 0
-441 116 114 0
-441 -116 -114 0
-443 442 0
-443 112 0
-443 111 -114 0
-443 -111 114 0
443 -442 111 114 -112 0
443 -442 -111 -114 -112 0
445 442 -111 0
445 -442 111 0
-445 442 111 0
-445 -442 -111 0
444 114 -112 0
444 -114 112 0
-444 114 112 0
-444 -114 -112 0
-446 445 0
-446 110 0
-446 109 -112 0
-446 -109 112 0
446 -445 109 112 -110 0
446 -445 -109 -112 -110 0
448 445 -109 0
448 -445 109 0
-448 445 109 0
-448 -445 -109 0
447 112 -110 0
447 -112 110 0
-447 112 110 0
-447 -112 -110 0
-449 448 0
-449 108 0
-449 107 -110 0
-449 -107 110 0
449 -448 107 110 -108 0
449 -448 -107 -110 -108 0
451 448 -107 0
451 -448 107 0
-451 448 107 0
-451 -448 -107 0
450 110 -108 0
450 -110 108 0
-450 110 108 0
-450 -110 -108 0
-452 451 0
-452 106 0
-452 105 -108 0
-452 -105 108 0
452 -451 105 108 -106 0
452 -451 -105 -108 -106 0
454 451 -105 0
454 -451 105 0
-454 451 105 0
-454 -451 -105 0
453 108 -106 0
453 -108 106 0
-453 108 106 0
-453 -108 -106 0
-455 454 0
-455 104 0
-455 103 -106 0
-455 -103 106 0
455 -454 103 106 -104 0
455 -454 -103 -106 -104 0
457 454 -103 0
457 -454 103 0
-457 454 103 0
-457 -454 -103 0
456 106 -104 0
456 -106 104 0
-456 106 104 0
-456 -106 -104 0
-458 457 0
-458 102 0
-458 101 -104 0
-458 -101 104 0
458 -457 101 104 -102 0
458 -457 -101 -104 -102 0
460 457 -101 0
460 -457 101 0
-460 457 101 0
-460 -457 -101 0
459 104 -102 0
459 -104 102 0
-459 104 102 0
-459 -104 -102 0
-461 460 0
-461 100 0
-461 99 -102 0
-461 -99 102 0
461 -460 99 102 -100 0
461 -460 -99 -102 -100 0
463 460 -99 0
463 -460 99 0
-463 460 99 0
-463 -460 -99 0
462 102 -100 0
462 -102 100 0
-462 102 100 0
-462 -102 -100 0
-464 463 0
-464 98 0
-464 97 -100 0
-464 -97 100 0
464 -463 97 100 -98 0
464 -463 -97 -100 -98 0
466 463 -97 0
466 -463 97 0
-466 463 97 0
-466 -463 -97 0
465 100 -98 0
465 -100 98 0
-465 100 98 0
-465 -100 -98 0
-467 466 0
-467 96 0
-467 95 -98 0
-467 -95 98 0
467 -466 95 98 -96 0
467 -466 -95 -98 -96 0
469 466 -95 0
469 -466 95 0
-469 466 95 0
-469 -466 -95 0
468 98 -96 0
468 -98 96 0
-468 98 96 0
-468 -98 -96 0
-470 469 0
-470 94 0
-470 93 -96 0
-470 -93 96 0
470 -469 93 96 -94 0
470 -469 -93 -96 -94 0
472 469 -93 0
472 -469 93 0
-472 469 93 0
-472 -469 -93 0
471 96 -94 0
471 -96 94 0
-471 96 94 0
-471 -96 -94 0
-473 472 0
-473 92 0
-473 91 -94 0
-473 -91 94 0
473 -472 91 94 -92 0
473 -472 -91 -94 -92 0
475 472 -91 0
475 -472 91 0
-475 472 91 0
-475 -472 -91 0
474 94 -92 0
474 -94 92 0
-474 94 92 0
-474 -94 -92 0
-476 475 0
-476 90 0
-476 89 -92 0
-476 -89 92 0
476 -475 89 92 -90 0
476 -475 -89 -92 -90 0
478 475 -89 0
478 -475 89 0
-478 475 89 0
-478 -475 -89 0
477 92 -90 0
477 -92 90 0
-477 92 90 0
-477 -92 -90 0
-479 478 0
-479 88 0
-479 87 -90 0
-479 -87 90 0
479 -478 87 90 -88 0
479 -478 -87 -90 -88 0
481 478 -87 0
481 -478 87 0
-481 478 87 0
-481 -478 -87 0
480 90 -88 0
480 -90 88 0
-480 90 88 0
-480 -90 -88 0
-482 481 0
-482 86 0
-482 85 -88 0
-482 -85 88 0
482 -481 85 88 -86 0
482 -481 -85 -88 -86 0
484 481 -85 0
484 -481 85 0
-484 481 85 0
-484 -481 -85 0
483 88 -86 0
483 -88 86 0
-483 88 86 0
-483 -88 -86 0
-485 484 0
-485 84 0
-485 83 -86 0
-485 -83 86 0
485 -484 83 86 -84 0
485 -484 -83 -86 -84 0
487 484 -83 0
487 -484 83 0
-487 484 83 0
-487 -484 -83 0
486 86 -84 0
486 -86 84 0
-486 86 84 0
-486 -86 -84 0
-488 487 0
-488 82 0
-488 81 -84 0
-488 -81 84 0
488 -487 81 84 -82 0
488 -487 -81 -84 -82 0
490 487 -81 0
490 -487 81 0
-490 487 81 0
-490 -487 -81 0
489 84 -82 0
489 -84 82 0
-489 84 82 0
-489 -84 -82 0
-491 490 0
-491 80 0
-491 79 -82 0
-491 -79 82 0
491 -490 79 82 -80 0
491 -490 -79 -82 -80 0
493 490 -79 0
493 -490 79 0
-493 490 79 0
-493 -490 -79 0
492 82 -80 0
492 -82 80 0
-492 82 80 0
-492 -82 -80 0
-494 493 0
-494 78 0
-494 77 -80 0
-494 -77 80 0
494 -493 77 80 -78 0
494 -493 -77 -80 -78 0
496 493 -77 0
496 -493 77 0
-496 493 77 0
-496 -493 -77 0
495 80 -78 0
495 -80 78 0
-495 80 78 0
-495 -80 -78 0
-497 496 0
-497 76 0
-497 75 -78 0
-497 -75 78 0
497 -496 75 78 -76 0
497 -496 -75 -78 -76 0
499 496 -75 0
499 -496 75 0
-499 496 75 0
-499 -496 -75 0
498 78 -76 0
498 -78 76 0
-498 78 76 0
-498 -78 -76 0
-500 499 0
-500 74 0
-500 73 -76 0
-500 -73 76 0
500 -499 73 76 -74 0
500 -499 -73 -76 -74 0
502 499 -73 0
502 -499 73 0
-502 499 73 0
-502 -499 -73 0
501 76 -74 0
501 -76 74 0
-501 76 74 0
-501 -76 -74 0
-503 502 0
-503 72 0
-503 71 -74 0
-503 -71 74 0
503 -502 71 74 -72 0
503 -502 -71 -74 -72 0
505 502 -71 0
505 -502 71 0
-505 502 71 0
-505 -502 -71 0
504 74 -72 0
504 -74 72 0
-504 74 72 0
-504 -74 -72 0
-506 505 0
-506 70 0
-506 69 -72 0
-506 -69 72 0
506 -505 69 72 -70 0
506 -505 -69 -72 -70 0
508 505 -69 0
508 -505 69 0
-508 505 69 0
-508 -505 -69 0
507 72 -70 0
507 -72 70 0
-507 72 70 0
-507 -72 -70 0
-509 508 0
-509 68 0
-509 67 -70 0
-509 -67 70 0
509 -508 67 70 -68 0
509 -508 -67 -70 -68 0
511 508 -67 0
511 -508 67 0
-511 508 67 0
-511 -508 -67 0
510 70 -68 0
510 -70 68 0
-510 70 68 0
-510 -70 -68 0
-512 511 0
-512 66 0
-512 65 -68 0
-512 -65 68 0
512 -511 65 68 -66 0
512 -511 -65 -68 -66 0
514 511 -65 0
514 -511 65 0
-514 511 65 0
-514 -511 -65 0
513 68 -66 0
513 -68 66 0
-513 68 66 0
-513 -68 -66 0
-515 514 0
-515 64 0
-515 63 -66 0
-515 -63 66 0
515 -514 63 66 -64 0
515 -514 -63 -66 -64 0
517 514 -63 0
517 -514 63 0
-517 514 63 0
-517 -514 -63 0
516 66 -64 0
516 -66 64 0
-516 66 64 0
-516 -66 -64 0
-518 517 0
-518 62 0
-518 61 -64 0
-518 -61 64 0
518 -517 61 64 -62 0
518 -517 -61 -64 -62 0
520 517 -61 0
520 -517 61 0
-520 517 61 0
-520 -517 -61 0
519 64 -62 0
519 -64 62 0
-519 64 62 0
-519 -64 -62 0
-521 520 0
-521 60 0
-521 59 -62 0
-521 -59 62 0
521 -520 59 62 -60 0
521 -520 -59 -62 -60 0
523 520 -59 0
523 -520 59 0
-523 520 59 0
-523 -520 -59 0
522 62 -60 0
522 -62 60 0
-522 62 60 0
-522 -62 -60 0
-524 523 0
-524 58 0
-524 57 -60 0
-524 -57 60 0
524 -523 57 60 -58 0
524 -523 -57 -60 -58 0
526 523 -57 0
526 -523 57 0
-526 523 57 0
-526 -523 -57 0
525 60 -58 0
525 -60 58 0
-525 60 58 0
-525 -60 -58 0
-527 526 0
-527 56 0
-527 55 -58 0
-527 -55 58 0
527 -526 55 58 -56 0
527 -526 -55 -58 -56 0
529 526 -55 0
529 -526 55 0
-529 526 55 0
-529 -526 -55 0
528 58 -56 0
528 -58 56 0
-528 58 56 0
-528 -58 -56 0
-530 529 0
-530 54 0
-530 53 -56 0
-530 -53 56 0
530 -529 53 56 -54 0
530 -529 -53 -56 -54 0
532 529 -53 0
532 -529 53 0
-532 529 53 0
-532 -529 -53 0
531 56 -54 0
531 -56 54 0
-531 56 54 0
-531 -56 -54 0
-533 532 0
-533 52 0
-533 51 -54 0
-533 -51 54 0
533 -532 51 54 -52 0
533 -532 -51 -54 -52 0
535 532 -51 0
535 -532 51 0
-535 532 51 0
-535 -532 -51 0
534 54 -52 0
534 -54 52 0
-534 54 52 0
-534 -54 -52 0
-536 535 0
-536 50 0
-536 49 -52 0
-536 -49 52 0
536 -535 49 52 -50 0
536 -535 -49 -52 -50 0
538 535 -49 0
538 -535 49 0
-538 535 49 0
-538 -535 -49 0
537 52 -50 0
537 -52 50 0
-537 52 50 0
-537 -52 -50 0
-539 538 0
-539 48 0
-539 47 -50 0
-539 -47 50 0
539 -538 47 50 -48 0
539 -538 -47 -50 -48 0
541 538 -47 0
541 -538 47 0
-541 538 47 0
-541 -538 -47 0
540 50 -48 0
540 -50 48 0
-540 50 48 0
-540 -50 -48 0
-542 541 0
-542 46 0
-542 45 -48 0
-542 -45 48 0
542 -541 45 48 -46 0
542 -541 -45 -48 -46 0
544 541 -45 0
544 -541 45 0
-544 541 45 0
-544 -541 -45 0
543 48 -46 0
543 -48 46 0
-543 48 46 0
-543 -48 -46 0
-545 544 0
-545 44 0
-545 43 -46 0
-545 -43 46 0
545 -544 43 46 -44 0
545 -544 -43 -46 -44 0
547 544 -43 0
547 -544 43 0
-547 544 43 0
-547 -544 -43 0
546 46 -44 0
546 -46 44 0
-546 46 44 0
-546 -46 -44 0
-548 547 0
-548 42 0
-548 41 -44 0
-548 -41 44 0
548 -547 41 44 -42 0
548 -547 -41 -44 -42 0
550 547 -41 0
550 -547 41 0
-550 547 41 0
-550 -547 -41 0
549 44 -42 0
549 -44 42 0
-549 44 42 0
-549 -44 -42 0
-551 550 0
-551 40 0
-551 39 -42 0
-551 -39 42 0
551 -550 39 42 -40 0
551 -550 -39 -42 -40 0
553 550 -39 0
553 -550 39 0
-553 550 39 0
-553 -550 -39 0
552 42 -40 0
552 -42 40 0
-552 42 40 0
-552 -42 -40 0
-554 553 0
-554 38 0
-554 37 -40 0
-554 -37 40 0
554 -553 37 40 -38 0
554 -553 -37 -40 -38 0
556 553 -37 0
556 -553 37 0
-556 553 37 0
-556 -553 -37 0
555 40 -38 0
555 -40 38 0
-555 40 38 0
-555 -40 -38 0
-557 556 0
-557 36 0
-557 35 -38 0
-557 -35 38 0
557 -556 35 38 -36 0
557 -556 -35 -38 -36 0
559 556 -35 0
559 -556 35 0
-559 556 35 0
-559 -556 -35 0
558 38 -36 0
558 -38 36 0
-558 38 36 0
-558 -38 -36 0
-560 559 0
-560 34 0
-560 33 -36 0
-560 -33 36 0
560 -559 33 36 -34 0
560 -559 -33 -36 -34 0
562 559 -33 0
562 -559 33 0
-562 559 33 0
-562 -559 -33 0
561 36 -34 0
561 -36 34 0
-561 36 34 0
-561 -36 -34 0
-563 562 0
-563 32 0
-563 31 -34 0
-563 -31 34 0
563 -562 31 34 -32 0
563 -562 -31 -34 -32 0
565 562 -31 0
565 -562 31 0
-565 562 31 0
-565 -562 -31 0
564 34 -32 0
564 -34 32 0
-564 34 32 0
-564 -34 -32 0
-566 565 0
-566 30 0
-566 29 -32 0
-566 -29 32 0
566 -565 29 32 -30 0
566 -565 -29 -32 -30 0
568 565 -29 0
568 -565 29 0
-568 565 29 0
-568 -565 -29 0
567 32 -30 0
567 -32 30 0
-567 32 30 0
-567 -32 -30 0
-569 568 0
-569 28 0
-569 27 -30 0
-569 -27 30 0
569 -568 27 30 -28 0
569 -568 -27 -30 -28 0
571 568 -27 0
571 -568 27 0
-571 568 27 0
-571 -568 -27 0
570 30 -28 0
570 -30 28 0
-570 30 28 0
-570 -30 -28 0
-572 571 0
-572 26 0
-572 25 -28 0
-572 -25 28 0
572 -571 25 28 -26 0
572 -571 -25 -28 -26 0
574 571 -25 0
574 -571 25 0
-574 571 25 0
-574 -571 -25 0
573 28 -26 0
573 -28 26 0
-573 28 26 0
-573 -28 -26 0
-575 574 0
-575 24 0
-575 23 -26 0
-575 -23 26 0
575 -574 23 26 -24 0
575 -574 -23 -26 -24 0
577 574 -23 0
577 -574 23 0
-577 574 23 0
-577 -574 -23 0
576 26 -24 0
576 -26 24 0
-576 26 24 0
-576 -26 -24 0
-578 577 0
-578 22 0
-578 21 -24 0
-578 -21 24 0
578 -577 21 24 -22 0
578 -577 -21 -24 -22 0
580 577 -21 0
580 -577 21 0
-580 577 21 0
-580 -577 -21 0
579 24 -22 0
579 -24 22 0
-579 24 22 0
-579 -24 -22 0
-581 580 0
-581 20 0
-581 19 -22 0
-581 -19 22 0
581 -580 19 22 -20 0
581 -580 -19 -22 -20 0
583 580 -19 0
583 -580 19 0
-583 580 19 0
-583 -580 -19 0
582 22 -20 0
582 -22 20 0
-582 22 20 0
-582 -22 -20 0
-584 583 0
-584 18 0
-584 17 -20 0
-584 -17 20 0
584 -583 17 20 -18 0
584 -583 -17 -20 -18 0
586 583 -17 0
586 -583 17 0
-586 583 17 0
-586 -583 -17 0
585 20 -18 0
585 -20 18 0
-585 20 18 0
-585 -20 -18 0
-587 586 0
-587 16 0
-587 15 -18 0
-587 -15 18 0
587 -586 15 18 -16 0
587 -586 -15 -18 -16 0
589 586 -15 0
589 -586 15 0
-589 586 15 0
-589 -586 -15 0
588 18 -16 0
588 -18 16 0
-588 18 16 0
-588 -18 -16 0
-590 589 0
-590 14 0
-590 13 -16 0
-590 -13 16 0
590 -589 13 16 -14 0
590 -589 -13 -16 -14 0
592 589 -13 0
592 -589 13 0
-592 589 13 0
-592 -589 -13 0
591 16 -14 0
591 -16 14 0
-591 16 14 0
-591 -16 -14 0
-593 592 0
-593 12 0
-593 11 -14 0
-593 -11 14 0
593 -592 11 14 -12 0
593 -592 -11 -14 -12 0
595 592 -11 0
595 -592 11 0
-595 592 11 0
-595 -592 -11 0
594 14 -12 0
594 -14 12 0
-594 14 12 0
-594 -14 -12 0
-596 595 0
-596 10 0
-596 9 -12 0
-596 -9 12 0
596 -595 9 12 -10 0
596 -595 -9 -12 -10 0
598 595 -9 0
598 -595 9 0
-598 595 9 0
-598 -595 -9 0
597 12 -10 0
597 -12 10 0
-597 12 10 0
-597 -12 -10 0
-599 598 0
-599 8 0
-599 7 -10 0
-599 -7 10 0
599 -598 7 10 -8 0
599 -598 -7 -10 -8 0
601 598 -7 0
601 -598 7 0
-601 598 7 0
-601 -598 -7 0
600 10 -8 0
600 -10 8 0
-600 10 8 0
-600 -10 -8 0
-602 601 0
-602 6 0
-602 5 -8 0
-602 -5 8 0
602 -601 5 8 -6 0
602 -601 -5 -8 -6 0
604 601 -5 0
604 -601 5 0
-604 601 5 0
-604 -601 -5 0
603 8 -6 0
603 -8 6 0
-603 8 6 0
-603 -8 -6 0
-605 604 0
-605 4 0
-605 3 -6 0
-605 -3 6 0
605 -604 3 6 -4 0
605 -604 -3 -6 -4 0
607 604 -3 0
607 -604 3 0
-607 604 3 0
-607 -604 -3 0
606 6 -4 0
606 -6 4 0
-606 6 4 0
-606 -6 -4 0
-608 607 0
-608 2 0
-608 1 -4 0
-608 -1 4 0
608 -607 1 4 -2 0
608 -607 -1 -4 -2 0
610 607 -1 0
610 -607 1 0
-610 607 1 0
-610 -607 -1 0
609 4 -2 0
609 -4 2 0
-609 4 2 0
-609 -4 -2 0
-610 0
-607 0
-609 0
-604 0
-606 0
-601 0
-603 0
-598 0
-600 0
-595 0
-597 0
-592 0
-594 0
-589 0
-591 0
-586 0
-588 0
-583 0
-585 0
-580 0
-582 0
-577 0
-579 0
-574 0
-576 0
-571 0
-573 0
-568 0
-570 0
-565 0
-567 0
-562 0
-564 0
-559 0
-561 0
-556 0
-558 0
-553 0
-555 0
-550 0
-552 0
-547 0
-549 0
-544 0
-546 0
-541 0
-543 0
-538 0
-540 0
-535 0
-537 0
-532 0
-534 0
-529 0
-531 0
-526 0
-528 0
-523 0
-525 0
-520 0
-522 0
-517 0
-519 0
-514 0
-516 0
-511 0
-513 0
-508 0
-510 0
-505 0
-507 0
-502 0
-504 0
-499 0
-501 0
-496 0
-498 0
-493 0
-495 0
-490 0
-492 0
-487 0
-489 0
-484 0
-486 0
-481 0
-483 0
-478 0
-480 0
-475 0
-477 0
-472 0
-474 0
-469 0
-471 0
-466 0
-468 0
-463 0
-465 0
-460 0
-462 0
-457 0
-459 0
-454 0
-456 0
-451 0
-453 0
-448 0
-450 0
-445 0
-447 0
-442 0
-444 0
-439 0
-441 0
-436 0
-438 0
-433 0
-435 0
-430 0
-432 0
-427 0
-429 0
-424 0
-426 0
-421 0
-423 0
-418 0
-420 0
-415 0
-417 0
-412 0
-414 0
-409 0
-411 0
-406 0
-408 0
-403 0
-405 0
-400 0
-402 0
-397 0
-399 0
-394 0
-396 0
-391 0
-393 0
-388 0
-390 0
-385 0
-387 0
-382 0
-384 0
-379 0
-381 0
-376 0
-378 0
-373 0
-375 0
-370 0
-372 0
-367 0
-369 0
-364 0
-366 0
-361 0
-363 0
-358 0
-360 0
-355 0
-357 0
-352 0
-354 0
-349 0
-351 0
-346 0
-348 0
-343 0
-345 0
-340 0
-342 0
-337 0
-339 0
-334 0
-336 0
-331 0
-333 0
-328 0
-330 0
-325 0
-327 0
-322 0
-324 0
-319 0
-321 0
-316 0
-318 0
-313 0
-315 0
-310 0
-312 0
-307 0
-309 0
-304 0
-306 0
-301 0
-303 0
-298 0
-300 0
-295 0
-297 0
-292 0
-294 0
-289 0
-291 0
-286 0
-288 0
-283 0
-285 0
-280 0
-282 0
-277 0
-279 0
-274 0
-276 0
-271 0
-273 0
-268 0
-270 0
-265 0
-267 0
-262 0
-264 0
-259 0
-261 0
-256 0
-258 0
-253 0
-255 0
-246 0
-252 0
